(set-logic ALL)
(declare-fun var0 () String)
(assert (str.in_re var0 (re.++ (re.union (re.* (str.to_re "00")) (re.* (str.to_re "111"))) (re.++ (re.+ (re.* (str.to_re "222"))) (re.++ (re.* (re.+ (str.to_re "33"))) (re.++ (re.union (re.* (str.to_re "444")) (re.* (str.to_re "55"))) (re.++ (re.union (re.* (str.to_re "666")) (re.* (str.to_re "777"))) (re.++ (re.union (re.* (str.to_re "888")) (re.* (str.to_re "999"))) (re.++ (re.+ (re.+ (str.to_re "a"))) (re.++ (re.+ (re.+ (str.to_re "bb"))) (re.++ (re.union (re.+ (str.to_re "c")) (re.+ (str.to_re "dd"))) (re.+ (re.* (str.to_re "e"))))))))))))))
(assert (<= 326 (str.len var0)))
(check-sat)